# First DFT no U 
ENCUT = 500.000000
SIGMA = 0.05
#POTIM = 0.050000
LREAL = A
EDIFF = 1.00e-04
#EDIFFG = -1.00e-02
IWAVPR = 11
NCORE = 18
PREC = Normal
ISYM = 0
#ISPIN = 2
ISMEAR = 0
ISTART = 1
#ICHARG = 1
NELMIN = 4
MAXMIX = 40
POTIM = 0.5
#NELECT = 341
ALGO = Very Fast
#KPAR = 4
#NPAR = 2
#LAECHG = .TRUE.
#LWAVE = .FALSE.
LCHARG = .TRUE.
NSW = 7328
SMASS = 0.5
TEBEG = 193
TEEND = 193
IBRION = 0
IVDW = 12
ISIF = 2
