LiCl
  1.00000000000000
	14.5000000000020002    0.0000000000000000    0.0000000000000000
	0.0000000000000000   14.6999999999999993    0.0000000000000000
	0.0000000000000000    0.0000000000000000   14.5000000000000302
   Li    Cl    O    H
   13    13   92   184
Cartesian
13.1282	10.3809	11.1869
14.1393	4.78231	9.46182
12.229	8.39849	7.65104
7.39167	8.61243	4.86792
9.00935	8.16145	13.2193
7.59666	4.91837	14.6421
6.79256	1.77627	1.71758
2.80225	4.10691	0.833327
9.73946	13.0267	5.79488
4.41653	5.48533	7.64011
3.47913	0.886755	3.91985
13.7515	6.3772	1.14055
3.08375	13.6528	11.6674
12.7407	10.7361	8.5247
0.978369	9.57155	12.27
14.2939	6.90025	7.91748
6.33428	6.67547	6.34619
11.1551	8.71188	11.8361
5.26738	3.27221	14.4629
5.96008	1.77045	4.14043
0.930008	2.52171	14.4229
9.04108	10.5328	5.51389
7.45654	6.46497	11.9719
2.08935	2.13795	5.73944
11.8371	7.74432	2.42144
0.875178	14.3523	10.2129
5.43847	5.17601	9.54625
2.96975	3.59918	2.81773
4.344	11.5485	8.13821
10.2557	12.5337	10.0741
14.1472	10.0519	4.45435
8.66839	10.6131	8.84885
13.9492	12.7451	5.31046
7.24466	10.8211	1.52999
6.14791	14.4384	1.29605
14.2164	2.76332	11.0793
1.04692	12.4287	7.49546
0.480397	5.86759	2.86807
3.30875	5.28923	12.059
13.923	14.0013	14.1576
8.13138	3.98045	8.00983
0.777923	7.97185	0.687782
12.4978	3.63545	8.35441
6.75005	14.2505	12.9745
3.04599	6.70967	8.80211
9.86709	1.85488	7.27973
3.86453	13.0725	1.07998
4.93548	5.59262	3.50873
5.14073	7.38938	14.1441
11.257	12.8333	3.90878
5.03903	14.2161	10.5281
10.893	2.80388	2.24209
3.40557	9.76382	2.35461
9.81777	4.604	10.2737
13.4475	6.5195	13.5393
3.33761	11.6717	10.6572
1.36805	8.19385	5.4086
9.96169	0.531449	9.93206
12.7389	12.3962	11.6851
3.86726	9.29611	6.112
8.40676	13.3313	7.48454
1.99641	12.818	13.43
2.75348	6.1582	0.507615
2.55025	0.639586	2.04276
8.94209	14.7777	4.71766
2.89583	2.90683	10.6963
13.3892	0.956799	7.69513
5.7527	9.65747	3.82279
3.80713	9.84744	14.1846
8.43849	7.79035	3.26847
11.9661	8.81182	5.57743
6.07096	14.2561	6.59348
0.767002	10.2586	2.05362
10.5006	7.56119	8.70013
10.0229	12.6098	0.49109
2.82913	7.37494	3.39851
7.50558	1.4971	11.2991
7.99864	4.50867	4.36523
6.51278	12.1191	9.81206
5.40409	9.80051	11.1796
2.55044	11.8294	5.55869
13.2508	4.89459	4.98256
11.0309	0.287487	1.05951
6.63107	6.37822	1.49249
0.60554	5.92033	11.1473
1.32085	3.63974	8.76484
10.0806	5.43434	7.0154
8.24312	3.78718	1.80301
4.71973	3.36799	7.31072
8.99496	12.3144	12.5937
8.2015	13.3107	2.54905
4.79672	12.3299	13.0611
11.454	2.31614	11.231
3.61354	7.91225	11.1726
11.6805	0.188668	12.8665
13.7128	2.31323	4.33932
5.45879	2.31901	9.70897
11.4117	13.3789	6.99058
3.89603	13.5861	4.29561
7.97929	8.06067	8.95546
8.36586	1.29035	0.467272
12.8286	4.36129	1.03742
8.61777	3.45757	13.2824
3.67838	14.5729	7.55807
2.77746	5.54646	6.15592
11.1205	4.5956	13.3837
9.33272	9.27787	0.582694
9.54083	6.42865	0.243963
13.8952	11.3722	0.0906351
7.28215	10.1184	13.2129
12.9314	14.9133	2.88611
6.12853	12.094	5.07238
3.50419	0.940676	12.679
11.0723	1.96877	4.86018
1.16799	13.1432	2.68834
10.678	5.19883	4.40079
12.1224	5.68708	11.1203
11.8137	10.9573	1.81405
5.71324	5.7911	10.2853
5.44382	4.23276	9.87829
3.89657	3.81142	3.12751
2.39029	3.40413	3.60904
3.75711	12.2422	7.72074
4.39478	10.75	7.53833
11.1389	12.1852	9.76014
9.53479	11.8867	9.82583
14.0581	11.0312	4.63596
13.2877	9.59199	4.67753
8.86644	10.8213	7.89102
8.3626	9.66428	8.92739
13.0351	13.0453	5.58317
0.0424255	12.7105	6.11474
7.45217	11.7535	1.82583
6.88422	10.2987	2.30275
6.86778	13.9976	1.8322
5.32642	13.8683	1.30861
-0.0881604	2.87673	12.0535
0.270101	2.01544	10.7131
1.15718	13.1702	8.15727
0.352558	11.7887	7.82456
1.37838	6.12197	3.22711
14.3814	5.60444	3.62434
4.01424	4.90343	12.6536
3.64967	6.13072	11.6399
13.1157	14.0581	13.5702
14.2409	0.223612	-0.122653
7.34483	4.57979	7.86112
8.952	4.40686	7.62935
0.70177	8.18383	14.2135
0.810171	8.82254	1.21246
11.6641	3.87271	7.85574
12.7432	2.68562	8.16054
6.59577	14.4475	13.9427
6.87325	0.408174	12.4754
2.07987	6.8565	8.58988
3.30729	7.28219	9.57924
9.16097	2.51646	7.53213
10.0306	1.23328	8.04581
3.31564	13.8012	1.48941
3.75336	13.0896	0.0863286
4.10233	6.13632	3.40749
5.21394	5.58511	4.46915
5.6206	7.08975	13.3195
4.98578	8.3763	14.0996
11.5256	12.0733	3.31701
11.8302	13.6285	3.7109
5.61301	13.4415	10.2627
5.55169	0.366596	10.4103
10.7978	2.4439	3.17019
10.7697	2.06226	1.58267
3.75847	9.75903	1.41896
2.44392	10.038	2.34674
9.29707	5.24411	10.8386
9.23074	4.247	9.54713
13.0534	7.37696	13.2085
13.85	6.01978	12.7723
3.74159	11.4927	9.76016
2.62199	10.9978	10.841
0.716662	8.89138	5.11002
1.05676	7.79441	6.27089
10.0219	14.2728	10.2103
10.6567	1.06327	10.4159
13.4979	12.9806	11.3982
11.9512	12.9651	11.9219
2.99346	8.90069	5.82894
4.56146	8.57736	6.15061
8.1966	13.3719	8.46137
7.67619	13.7774	6.96759
1.9746	11.839	13.6325
1.06509	13.182	13.4435
3.6045	6.58002	0.194803
2.03038	6.84834	0.536572
2.01355	14.5006	2.13249
2.04105	1.3041	1.49583
8.05859	0.545997	4.70521
9.67769	0.752136	4.65373
2.61013	2.09502	11.2056
2.87902	3.70286	11.3013
14.0841	0.812937	6.99052
13.6881	0.532006	8.54966
5.56142	10.5499	4.23138
4.96759	9.36587	3.27638
4.16983	10.7692	14.0474
3.05139	9.68864	13.5492
7.9782	7.38896	2.47662
9.37774	8.02948	3.02221
11.2958	9.54149	5.71278
11.766	8.32939	4.72466
6.16446	0.245624	5.87533
5.19746	14.3811	7.06396
0.409167	9.99505	2.94943
0.104223	10.8465	1.58975
10.8566	7.84306	9.59109
9.52352	7.76843	8.65088
10.4395	11.8122	0.927243
9.6996	12.3598	14.0784
3.22247	8.02609	2.74944
2.31204	7.87084	4.09615
8.33267	1.194	10.8257
6.89497	1.94767	10.6478
7.38022	3.75478	4.14343
7.50741	5.19655	4.89956
5.80641	12.0804	9.10527
7.26306	11.5049	9.56748
6.05284	9.64652	11.9249
5.72243	10.5599	10.6121
3.03888	10.9724	5.72296
1.89931	11.9895	6.30059
12.2989	5.17449	4.85761
13.5954	5.26163	5.84655
10.8041	14.0368	0.847823
11.7545	0.311851	1.74926
6.0321	6.76906	0.793577
6.09463	6.16217	2.30831
1.44227	5.63961	11.6175
0.655871	6.89535	10.931
1.42425	2.99134	8.0106
1.87167	3.33692	9.54259
10.2366	5.49947	6.02979
10.1836	6.33866	7.42964
8.04076	4.33959	2.61165
9.16637	3.41058	1.87914
3.99013	2.89113	6.82053
5.58932	3.22105	6.83933
8.3494	13.0736	12.6773
9.52054	12.4154	11.7489
8.79796	13.3524	1.74749
8.6761	13.7004	3.3383
5.6104	12.9056	13.1421
4.88173	11.7441	12.2552
10.8747	3.04958	10.8754
12.4151	2.54847	11.0816
2.77444	8.37963	11.451
4.36421	8.57161	11.131
11.4969	0.332546	13.8389
11.5704	1.05264	12.3751
0.119062	2.18409	4.7419
13.4758	3.28458	4.35651
4.6463	2.36989	10.2897
5.25515	2.71845	8.81512
11.6637	12.6754	7.65504
11.7938	14.2582	7.27505
3.2396	13.0179	4.79193
4.74609	13.076	4.16445
7.62539	7.78333	9.84868
7.4724	7.58788	8.23467
9.24844	0.848281	0.307152
8.28263	2.09238	14.3758
13.5739	3.73228	0.816207
12.1727	3.90311	1.6373
9.50859	3.89618	13.1638
8.30493	3.09564	12.4042
3.16578	0.517128	6.99041
3.46905	14.7382	8.52184
2.00612	6.15812	6.33176
2.4491	4.60358	6.09979
11.4714	4.83924	12.4795
11.8753	4.57277	14.0391
8.57163	9.62483	1.13075
10.1978	9.5254	1.01909
10.2674	5.86679	14.3485
9.93434	7.06116	0.911106
13.8887	12.3661	14.4806
14.4925	10.9643	13.9001
7.85705	10.8191	12.7904
6.99817	10.4238	14.1218
13.8145	14.4894	2.68486
13.0789	1.0844	3.35463
6.01843	12.7398	5.82789
6.98407	11.5892	5.18737
2.75353	1.14819	13.3063
4.36827	1.24252	13.0818
10.6575	1.81956	5.75779
12.0107	2.29401	4.97653
1.36442	12.2413	2.30346
0.83033	13.0399	3.62393
9.74933	4.83029	4.35996
10.8532	5.75213	3.58643
11.3451	5.32405	10.6066
11.9471	6.64205	11.3596
12.5651	11.155	1.18445
11.7619	9.9712	1.97197
